20	5
0	4	2	4	1	3
1	1	17
2	1	15
3	0
4	2	11	15
5	1	12
6	0
7	0
8	1	5
9	1	10
10	1	18
11	1	6
12	1	21
13	1	21
14	1	8
15	2	17	7
16	1	7
17	1	20
18	1	16
19	2	9	17
20	1	21
21	0
0	0	0	0	0	0	0
1	8	3	0	4	5	0
2	8	1	0	0	5	0
3	7	0	2	0	3	0
4	6	3	4	5	2	0
5	5	3	5	1	5	1
6	4	3	0	1	5	1
7	5	2	2	5	3	2
8	9	3	0	4	0	4
9	2	0	2	2	4	2
10	10	1	0	2	1	0
11	8	0	0	1	3	5
12	3	0	0	5	2	4
13	6	1	0	3	0	4
14	1	4	5	3	5	4
15	7	5	4	1	4	2
16	6	3	0	0	2	2
17	5	1	3	0	5	2
18	6	2	5	2	2	5
19	6	5	1	5	5	4
20	7	5	4	4	4	0
21	0	0	0	0	0	0
9	8	8	12	6
